ID_groupA
123661
66211
161705
123661
123661
123661
123661
55064
55064
55064
55064
123661
123661
123661
123661
161705
123661
123661
180791
123661
123661
55064
123661
123661
123661
180791
123661
66211
66211
66211
66211
66211
66211
66211
66211
66211
66211
66211
66211
161705
161705
161705
161705
161705
66211
66211
123661
161705
180791
161705
161705
161705
161705
66211
66211
66211
123661
66211
180791
161705
161705
161705
123661
55064
66211
123661
123661
180791
161705
161705
123661
55064
66211
180791
123661
180791
180791
123661
55064
66211
123661
161705
180791
161705
55064
66211
123661
123661
123661
123661
55064
55064
55064
55064
55064
55064
66211
123661
66211
123661
180791
123661
123661
123661
180791
